1337808
2,1,63,4,26,96,41,34,66,60,57,14,82,81,15,87,35,90,52,43,62,59,92,12,73,36,47,3,65,46,32,8,69,56,20,19,29,95,76,55,9,31,0,80,6,38,83,18,11,25,93,39,28,77,16,78,50,24,72,94,21,42,64,23,10,27,33,89,70,45,97,22,53,58,51,91,13,85,44,75,86,37,49,71,98,79,67,30,61,48,68,74,40,5,17,54,7,88,84